32      4       
19      16      17      15      
0       0       0       0       0       8       2       25      26      27      28      29      30      31      
3       0       15      8       0       1       3       
10      0       9       10      0       2       4       24      
4       0       0       11      6       3       5       22      23      
9       0       7       4       0       1       6       
2       0       9       0       4       2       7       21      
7       2       0       7       0       3       8       19      20      
6       4       0       5       0       2       9       18      
3       19      0       0       6       2       10      17      
6       1       4       0       0       1       11      
2       0       0       6       12      1       12      
1       13      0       0       15      1       13      
1       0       8       10      0       1       14      
6       0       5       0       1       1       15      
1       0       0       4       1       1       16      
10      1       10      0       0       1       32      
10      0       4       0       7       1       32      
7       9       0       0       7       1       32      
8       19      0       0       15      1       32      
7       0       4       4       0       1       32      
8       10      0       0       7       1       32      
9       13      0       8       0       1       32      
4       0       0       17      10      1       32      
10      0       0       6       11      1       32      
4       4       0       0       7       1       32      
9       0       5       0       4       1       32      
3       12      13      0       0       1       32      
8       6       10      0       0       1       32      
5       0       16      15      0       1       32      
2       19      1       0       0       1       32      
6       11      0       13      0       1       32      
0       0       0       0       0       0       
